[[31, 58, 72, 39, 9, 25, 55, 50, 18, 24, 49, 3, 44, 32, 40, 51, 17, 12, 26, 76, 67, 34, 46, 4, 75, 68, 2, 6], [33, 73, 16, 63, 23, 56, 41, 43, 42, 64, 22, 62, 61, 28, 74, 30, 48, 21, 47, 36, 69, 71, 60], [70, 20, 37, 15, 57, 5, 29, 45, 27, 52, 13, 54, 19, 8, 35, 7, 53, 14, 59, 11, 66, 65, 38, 10]]